NAME          DCAP_3_4_2_200_SS139
ROWS
 N  OBJ
 L  CON1
 L  CON2
 L  CON3
 L  CON4
 L  CON5
 L  CON6
 L  CON7
 L  CON8
 L  CON9
 L  CON10
 L  CON11
 L  CON12
 E  CON13
 E  CON14
 E  CON15
 E  CON16
 E  CON17
 E  CON18
 E  CON19
 E  CON20
COLUMNS
    x[1,1]    OBJ       6.180167      CON1      1.000000    
    x[1,1]    CON7      -1.000000     CON8      -1.000000   
    x[1,2]    OBJ       5.039546      CON2      1.000000    
    x[1,2]    CON8      -1.000000   
    x[2,1]    OBJ       6.732585      CON3      1.000000    
    x[2,1]    CON9      -1.000000     CON10     -1.000000   
    x[2,2]    OBJ       7.443064      CON4      1.000000    
    x[2,2]    CON10     -1.000000   
    x[3,1]    OBJ       6.563535      CON5      1.000000    
    x[3,1]    CON11     -1.000000     CON12     -1.000000   
    x[3,2]    OBJ       6.054841      CON6      1.000000    
    x[3,2]    CON12     -1.000000   
    MARKER    'MARKER'                'INTORG'
    u[1,1]    OBJ       48.076654     CON1      -1.000000   
    u[1,2]    OBJ       49.466655     CON2      -1.000000   
    u[2,1]    OBJ       49.996186     CON3      -1.000000   
    u[2,2]    OBJ       32.230043     CON4      -1.000000   
    u[3,1]    OBJ       20.066487     CON5      -1.000000   
    u[3,2]    OBJ       27.484319     CON6      -1.000000   
    y[1,1,1]  OBJ       9.980189      CON7      0.645113    
    y[1,1,1]  CON13     1.000000    
    y[1,1,2]  OBJ       7.776461      CON8      1.219389    
    y[1,1,2]  CON14     1.000000    
    y[1,2,1]  OBJ       5.704806      CON7      1.114972    
    y[1,2,1]  CON15     1.000000    
    y[1,2,2]  OBJ       7.301941      CON8      1.446348    
    y[1,2,2]  CON16     1.000000    
    y[1,3,1]  OBJ       7.989797      CON7      1.173035    
    y[1,3,1]  CON17     1.000000    
    y[1,3,2]  OBJ       7.670467      CON8      1.305264    
    y[1,3,2]  CON18     1.000000    
    y[1,4,1]  OBJ       8.284062      CON7      1.219686    
    y[1,4,1]  CON19     1.000000    
    y[1,4,2]  OBJ       8.438659      CON8      0.882165    
    y[1,4,2]  CON20     1.000000    
    y[2,1,1]  OBJ       7.840324      CON9      0.645113    
    y[2,1,1]  CON13     1.000000    
    y[2,1,2]  OBJ       9.092902      CON10     1.219389    
    y[2,1,2]  CON14     1.000000    
    y[2,2,1]  OBJ       5.648629      CON9      1.114972    
    y[2,2,1]  CON15     1.000000    
    y[2,2,2]  OBJ       9.537336      CON10     1.446348    
    y[2,2,2]  CON16     1.000000    
    y[2,3,1]  OBJ       9.676848      CON9      1.173035    
    y[2,3,1]  CON17     1.000000    
    y[2,3,2]  OBJ       8.380875      CON10     1.305264    
    y[2,3,2]  CON18     1.000000    
    y[2,4,1]  OBJ       9.820286      CON9      1.219686    
    y[2,4,1]  CON19     1.000000    
    y[2,4,2]  OBJ       7.785453      CON10     0.882165    
    y[2,4,2]  CON20     1.000000    
    y[3,1,1]  OBJ       9.630155      CON11     0.645113    
    y[3,1,1]  CON13     1.000000    
    y[3,1,2]  OBJ       9.679232      CON12     1.219389    
    y[3,1,2]  CON14     1.000000    
    y[3,2,1]  OBJ       5.148253      CON11     1.114972    
    y[3,2,1]  CON15     1.000000    
    y[3,2,2]  OBJ       8.856701      CON12     1.446348    
    y[3,2,2]  CON16     1.000000    
    y[3,3,1]  OBJ       5.062440      CON11     1.173035    
    y[3,3,1]  CON17     1.000000    
    y[3,3,2]  OBJ       7.426461      CON12     1.305264    
    y[3,3,2]  CON18     1.000000    
    y[3,4,1]  OBJ       7.233134      CON11     1.219686    
    y[3,4,1]  CON19     1.000000    
    y[3,4,2]  OBJ       8.915783      CON12     0.882165    
    y[3,4,2]  CON20     1.000000    
    z[1,1]    OBJ       716.510405    CON13     1.000000    
    z[1,2]    OBJ       518.174323    CON14     1.000000    
    z[2,1]    OBJ       960.465646    CON15     1.000000    
    z[2,2]    OBJ       655.086083    CON16     1.000000    
    z[3,1]    OBJ       826.609589    CON17     1.000000    
    z[3,2]    OBJ       633.959942    CON18     1.000000    
    z[4,1]    OBJ       596.574303    CON19     1.000000    
    z[4,2]    OBJ       887.067899    CON20     1.000000    
    MARKER    'MARKER'                 'INTEND'
RHS
    RHS       CON1      -0.000000     CON2      -0.000000   
    RHS       CON3      -0.000000     CON4      -0.000000   
    RHS       CON5      -0.000000     CON6      -0.000000   
    RHS       CON7      -0.000000     CON8      -0.000000   
    RHS       CON9      -0.000000     CON10     -0.000000   
    RHS       CON11     -0.000000     CON12     -0.000000   
    RHS       CON13     1.000000      CON14     1.000000    
    RHS       CON15     1.000000      CON16     1.000000    
    RHS       CON17     1.000000      CON18     1.000000    
    RHS       CON19     1.000000      CON20     1.000000    
BOUNDS
 BV BOUND     u[1,1]  
 BV BOUND     u[1,2]  
 BV BOUND     u[2,1]  
 BV BOUND     u[2,2]  
 BV BOUND     u[3,1]  
 BV BOUND     u[3,2]  
 BV BOUND     y[1,1,1]
 BV BOUND     y[1,1,2]
 BV BOUND     y[1,2,1]
 BV BOUND     y[1,2,2]
 BV BOUND     y[1,3,1]
 BV BOUND     y[1,3,2]
 BV BOUND     y[1,4,1]
 BV BOUND     y[1,4,2]
 BV BOUND     y[2,1,1]
 BV BOUND     y[2,1,2]
 BV BOUND     y[2,2,1]
 BV BOUND     y[2,2,2]
 BV BOUND     y[2,3,1]
 BV BOUND     y[2,3,2]
 BV BOUND     y[2,4,1]
 BV BOUND     y[2,4,2]
 BV BOUND     y[3,1,1]
 BV BOUND     y[3,1,2]
 BV BOUND     y[3,2,1]
 BV BOUND     y[3,2,2]
 BV BOUND     y[3,3,1]
 BV BOUND     y[3,3,2]
 BV BOUND     y[3,4,1]
 BV BOUND     y[3,4,2]
 BV BOUND     z[1,1]  
 BV BOUND     z[1,2]  
 BV BOUND     z[2,1]  
 BV BOUND     z[2,2]  
 BV BOUND     z[3,1]  
 BV BOUND     z[3,2]  
 BV BOUND     z[4,1]  
 BV BOUND     z[4,2]  
ENDATA
